; --------------------------------------------------------------------------
; File     : ODRL350-1.smt2
; Domain   : ODRL Spatial Axis Profile
; Problem  : Depth axis breaks subsumption → Refuted
; Expected : sat
; Verdict  : Refuted
; Category : Box3D
;
; ODRL Policy (Turtle):
;   @prefix odrl: <http://www.w3.org/ns/odrl/2/> .
;   @prefix oax:  <http://w3id.org/odrl/spatial-axis#> .
;   @prefix ex:   <https://example.org/> .
;
;   ex:policyA a odrl:Set ;
;     odrl:permission [
;       odrl:action odrl:use ;
;       odrl:constraint [
;         odrl:leftOperand oax:absoluteSizeWidth ;
;         odrl:operator odrl:lteq ;
;         odrl:rightOperand "600"^^xsd:decimal ;
;         odrl:unit <http://dbpedia.org/resource/Pixel> ] ;
;       odrl:constraint [
;         odrl:leftOperand oax:absoluteSizeHeight ;
;         odrl:operator odrl:lteq ;
;         odrl:rightOperand "400"^^xsd:decimal ;
;         odrl:unit <http://dbpedia.org/resource/Pixel> ] ;
;       odrl:constraint [
;         odrl:leftOperand oax:absoluteSizeDepth ;
;         odrl:operator odrl:lteq ;
;         odrl:rightOperand "32"^^xsd:decimal ] ] .
;
;   ex:policyB a odrl:Set ;
;     odrl:permission [
;       odrl:action odrl:use ;
;       odrl:constraint [
;         odrl:leftOperand oax:absoluteSizeWidth ;
;         odrl:operator odrl:lteq ;
;         odrl:rightOperand "1200"^^xsd:decimal ;
;         odrl:unit <http://dbpedia.org/resource/Pixel> ] ;
;       odrl:constraint [
;         odrl:leftOperand oax:absoluteSizeHeight ;
;         odrl:operator odrl:lteq ;
;         odrl:rightOperand "800"^^xsd:decimal ;
;         odrl:unit <http://dbpedia.org/resource/Pixel> ] ;
;       odrl:constraint [
;         odrl:leftOperand oax:absoluteSizeDepth ;
;         odrl:operator odrl:lteq ;
;         odrl:rightOperand "16"^^xsd:decimal ] ] .
;
; Gen      : gen_axis_suite.py
; --------------------------------------------------------------------------
(set-logic QF_LRA)
(declare-const x Real)
(declare-const y Real)
(declare-const z Real)

; --- Axis 1: width (∈ box_A) ---
(assert (> x 0))
(assert (<= x 600))

; --- Axis 2: height (∈ box_A) ---
(assert (> y 0))
(assert (<= y 400))

; --- Axis 3: depth (∈ box_A) ---
(assert (> z 0))
(assert (<= z 32))

; --- ¬(∈ box_B): De Morgan disjunction ---
(assert (or (not (<= x 1200)) (not (<= y 800)) (not (<= z 16))))

; Result: sat → Refuted
(check-sat)
(exit)
